100
32
1
22
19
3
23
7
17
23
22
17
7
17
9
5
16
32
1
17
17
2
25
11
18
19
26
23
19
18
7
24
22
2
19
4
21
8
21
21
23
21
20
1
21
3
15
26
22
17
9
23
3
20
2
6
1
20
27
21
7
9
10
11
20
10
12
1
6
17
2
5
15
2
5
13
13
2
15
2
13
2
21
16
13
14
13
9
16
4
27
14
1
15
32
19
23
13
3
3
2
14